data;
set V := 
0
1
2
3
4
5
6
7
8
9
10
11
12
13
14
15
;
set E := 
0 8
8 0
0 1
1 0
1 9
9 1
1 2
2 1
2 10
10 2
2 3
3 2
3 11
11 3
3 4
4 3
4 12
12 4
4 5
5 4
5 13
13 5
5 6
6 5
6 14
14 6
6 7
7 6
7 15
15 7
8 9
9 8
9 10
10 9
10 11
11 10
11 12
12 11
12 13
13 12
13 14
14 13
14 15
15 14
;
param l := 
0 8 9
8 0 9
0 1 5
1 0 5
1 9 4
9 1 4
1 2 3
2 1 3
2 10 5
10 2 5
2 3 5
3 2 5
3 11 4
11 3 4
3 4 1
4 3 1
4 12 9
12 4 9
4 5 10
5 4 10
5 13 6
13 5 6
5 6 1
6 5 1
6 14 1
14 6 1
6 7 8
7 6 8
7 15 0
15 7 0
8 9 0
9 8 0
9 10 9
10 9 9
10 11 4
11 10 4
11 12 3
12 11 3
12 13 3
13 12 3
13 14 0
14 13 0
14 15 10
15 14 10
;
